25, 352
139, 83
255, 13
489, 31
175, 40
68, 66
370, 23
184, 98
91, 85
129, 40
170, 79
55, 69
400, 28
450, 31
512, 47
523, 90
430, 90
383, 20
115, 61
82, 45
333, 60
255, 39
365, 1
206, 76
311, 91
89, 71